10
butadiene-singlet-wb97xd0
 C    -0.5592077654   -0.4667792136   -0.000000006    
 C    0.5592077654    0.4667792136    0.0000000075    
 C    1.8358528791    0.0978671992    0.0000000116    
 C    -1.8358528791   -0.0978671992   -0.0000000155   
 H    -0.3060681777   -1.5235421492   -0.0000000017   
 H    0.3060681777    1.5235421492    -0.0000000016   
 H    2.6365724021    0.8257396836    -0.0000000128   
 H    2.1199523445    -0.948727465    0.0000000043    
 H    -2.6365724021   -0.8257396836   0.0000000045    
 H    -2.1199523445   0.948727465     0.0000000098    
